Version identifier: 20.1.0.0 | 2020-11-10 | 9bedb6d68
Tried aggregator 3 times.
MIP Presolve eliminated 889 rows and 473 columns.
MIP Presolve modified 1653 coefficients.
Aggregator did 82 substitutions.
Reduced MIP has 635 rows, 552 columns, and 1977 nonzeros.
Reduced MIP has 129 binaries, 423 generals, 0 SOSs, and 0 indicators.
Presolve time = 0.01 sec. (3.92 ticks)
Found incumbent of value 534.000000 after 0.01 sec. (5.99 ticks)
Probing fixed 17 vars, tightened 161 bounds.
Probing time = 0.00 sec. (0.49 ticks)
Tried aggregator 2 times.
MIP Presolve eliminated 245 rows and 75 columns.
MIP Presolve modified 100 coefficients.
Aggregator did 26 substitutions.
Reduced MIP has 364 rows, 451 columns, and 1121 nonzeros.
Reduced MIP has 175 binaries, 276 generals, 0 SOSs, and 0 indicators.
Presolve time = 0.00 sec. (1.47 ticks)
Probing time = 0.00 sec. (0.12 ticks)
Tried aggregator 1 time.
Detecting symmetries...
MIP Presolve modified 96 coefficients.
Reduced MIP has 364 rows, 451 columns, and 1121 nonzeros.
Reduced MIP has 175 binaries, 276 generals, 0 SOSs, and 0 indicators.
Presolve time = 0.00 sec. (0.89 ticks)
Probing time = 0.00 sec. (0.11 ticks)
Clique table members: 58.
MIP emphasis: balance optimality and feasibility.
MIP search method: dynamic search.
Parallel mode: deterministic, using up to 24 threads.
Root relaxation solution time = 0.00 sec. (1.39 ticks)

        Nodes                                         Cuts/
   Node  Left     Objective  IInf  Best Integer    Best Bound    ItCnt     Gap

*     0+    0                          534.0000        0.0000           100.00%
*     0+    0                           19.0000        0.0000           100.00%
      0     0        0.5625    90       19.0000        0.5625      165   97.04%
*     0+    0                           11.0000        0.5625            94.89%
      0     0        2.1609   141       11.0000      Cuts: 34      246   80.36%
      0     0        3.4380   145       11.0000      Cuts: 45      341   68.75%
      0     0        3.4667   171       11.0000      Cuts: 42      394   68.48%
      0     0        3.5000   167       11.0000      Cuts: 38      426   68.18%
      0     0        4.0000   150       11.0000      Cuts: 23      453   63.64%
      0     0        4.0000   162       11.0000      Cuts: 44      488   63.64%
      0     0        4.0000   134       11.0000      Cuts: 23      521   63.64%
      0     0        4.0000   127       11.0000      Cuts: 77      575   63.64%
*     0+    0                            8.0000        4.0000            50.00%
      0     0        cutoff              8.0000        8.0000      575    0.00%
Elapsed time = 0.16 sec. (60.40 ticks, tree = 0.01 MB, solutions = 4)

Clique cuts applied:  7
Implied bound cuts applied:  18
Mixed integer rounding cuts applied:  4
Zero-half cuts applied:  36
Lift and project cuts applied:  3
Gomory fractional cuts applied:  1

Root node processing (before b&c):
  Real time             =    0.16 sec. (60.46 ticks)
Parallel b&c, 24 threads:
  Real time             =    0.00 sec. (0.00 ticks)
  Sync time (average)   =    0.00 sec.
  Wait time (average)   =    0.00 sec.
                          ------------
Total (root+branch&cut) =    0.16 sec. (60.46 ticks)

Solution status = Optimal
Solution LB = 8
Solution UB = 8
Runtime = 0.1629 seconds
	Command being timed: "/home/min/git_repos/CS598MEBProject/CNT-ILP/build/cnt -s 2 ./output/k6_n20/simC_c1_k6_n20_u1_s1_del04.input-left.cnp"
	User time (seconds): 1.64
	System time (seconds): 0.03
	Percent of CPU this job got: 946%
	Elapsed (wall clock) time (h:mm:ss or m:ss): 0:00.17
	Average shared text size (kbytes): 0
	Average unshared data size (kbytes): 0
	Average stack size (kbytes): 0
	Average total size (kbytes): 0
	Maximum resident set size (kbytes): 49752
	Average resident set size (kbytes): 0
	Major (requiring I/O) page faults: 0
	Minor (reclaiming a frame) page faults: 9363
	Voluntary context switches: 2181
	Involuntary context switches: 222
	Swaps: 0
	File system inputs: 0
	File system outputs: 16
	Socket messages sent: 0
	Socket messages received: 0
	Signals delivered: 0
	Page size (bytes): 4096
	Exit status: 0
